objective value:                                  645
t_p_0.1                                             1 	(obj:0)
t_p_0.3                                             1 	(obj:0)
t_p_0.5                                             1 	(obj:0)
t_p_0.6                                             1 	(obj:0)
t_p_0.9                                             1 	(obj:0)
t_p_0.10                                            1 	(obj:0)
t_p_0.12                                            1 	(obj:0)
t_p_0.17                                            1 	(obj:0)
t_p_0.18                                            1 	(obj:0)
t_p_0.19                                            1 	(obj:0)
t_p_0.20                                            1 	(obj:0)
t_p_0.21                                            1 	(obj:0)
t_p_0.23                                            1 	(obj:0)
t_p_0.24                                            1 	(obj:0)
t_p_0.29                                            1 	(obj:0)
t_p_1.0                                             1 	(obj:0)
t_p_1.2                                             1 	(obj:0)
t_p_1.3                                             1 	(obj:0)
t_p_1.19                                            1 	(obj:0)
t_p_1.22                                            1 	(obj:0)
t_p_2.0                                             1 	(obj:0)
t_p_2.3                                             1 	(obj:0)
t_p_2.4                                             1 	(obj:0)
t_p_2.5                                             1 	(obj:0)
t_p_2.6                                             1 	(obj:0)
t_p_2.10                                            1 	(obj:0)
t_p_2.12                                            1 	(obj:0)
t_p_2.13                                            1 	(obj:0)
t_p_2.16                                            1 	(obj:0)
t_p_2.17                                            1 	(obj:0)
t_p_2.18                                            1 	(obj:0)
t_p_2.19                                            1 	(obj:0)
t_p_2.20                                            1 	(obj:0)
t_p_2.21                                            1 	(obj:0)
t_p_2.23                                            1 	(obj:0)
t_p_3.0                                             1 	(obj:0)
t_p_3.1                                             1 	(obj:0)
t_p_3.2                                             1 	(obj:0)
t_p_3.5                                             1 	(obj:0)
t_p_3.6                                             1 	(obj:0)
t_p_3.7                                             1 	(obj:0)
t_p_3.9                                             1 	(obj:0)
t_p_3.10                                            1 	(obj:0)
t_p_3.11                                            1 	(obj:0)
t_p_3.12                                            1 	(obj:0)
t_p_3.13                                            1 	(obj:0)
t_p_3.14                                            1 	(obj:0)
t_p_3.15                                            1 	(obj:0)
t_p_3.19                                            1 	(obj:0)
t_p_3.21                                            1 	(obj:0)
t_p_3.22                                            1 	(obj:0)
t_p_3.23                                            1 	(obj:0)
t_p_3.29                                            1 	(obj:0)
t_p_4.0                                             1 	(obj:0)
t_p_4.2                                             1 	(obj:0)
t_p_4.5                                             1 	(obj:0)
t_p_4.10                                            1 	(obj:0)
t_p_4.17                                            1 	(obj:0)
t_p_4.18                                            1 	(obj:0)
t_p_4.19                                            1 	(obj:0)
t_p_4.23                                            1 	(obj:0)
t_p_5.0                                             1 	(obj:0)
t_p_5.2                                             1 	(obj:0)
t_p_5.4                                             1 	(obj:0)
t_p_5.6                                             1 	(obj:0)
t_p_5.8                                             1 	(obj:0)
t_p_5.11                                            1 	(obj:0)
t_p_5.13                                            1 	(obj:0)
t_p_5.15                                            1 	(obj:0)
t_p_5.16                                            1 	(obj:0)
t_p_5.17                                            1 	(obj:0)
t_p_5.18                                            1 	(obj:0)
t_p_5.19                                            1 	(obj:0)
t_p_5.24                                            1 	(obj:0)
t_p_5.25                                            1 	(obj:0)
t_p_5.26                                            1 	(obj:0)
t_p_5.27                                            1 	(obj:0)
t_p_5.28                                            1 	(obj:0)
t_p_5.29                                            1 	(obj:0)
t_p_6.0                                             1 	(obj:0)
t_p_6.2                                             1 	(obj:0)
t_p_6.5                                             1 	(obj:0)
t_p_6.8                                             1 	(obj:0)
t_p_6.9                                             1 	(obj:0)
t_p_6.11                                            1 	(obj:0)
t_p_6.12                                            1 	(obj:0)
t_p_6.13                                            1 	(obj:0)
t_p_6.14                                            1 	(obj:0)
t_p_6.15                                            1 	(obj:0)
t_p_6.18                                            1 	(obj:0)
t_p_6.22                                            1 	(obj:0)
t_p_6.23                                            1 	(obj:0)
t_p_6.24                                            1 	(obj:0)
t_p_6.26                                            1 	(obj:0)
t_p_6.28                                            1 	(obj:0)
t_p_7.0                                             1 	(obj:0)
t_p_7.2                                             1 	(obj:0)
t_p_7.4                                             1 	(obj:0)
t_p_7.5                                             1 	(obj:0)
t_p_7.6                                             1 	(obj:0)
t_p_7.10                                            1 	(obj:0)
t_p_7.18                                            1 	(obj:0)
t_p_7.19                                            1 	(obj:0)
t_p_8.5                                             1 	(obj:0)
t_p_8.6                                             1 	(obj:0)
t_p_8.9                                             1 	(obj:0)
t_p_8.10                                            1 	(obj:0)
t_p_8.11                                            1 	(obj:0)
t_p_8.12                                            1 	(obj:0)
t_p_8.13                                            1 	(obj:0)
t_p_8.14                                            1 	(obj:0)
t_p_8.15                                            1 	(obj:0)
t_p_8.16                                            1 	(obj:0)
t_p_8.22                                            1 	(obj:0)
t_p_8.23                                            1 	(obj:0)
t_p_8.24                                            1 	(obj:0)
t_p_8.26                                            1 	(obj:0)
t_p_8.28                                            1 	(obj:0)
t_p_8.29                                            1 	(obj:0)
t_p_9.0                                             1 	(obj:0)
t_p_9.5                                             1 	(obj:0)
t_p_9.11                                            1 	(obj:0)
t_p_9.13                                            1 	(obj:0)
t_p_9.15                                            1 	(obj:0)
t_p_9.16                                            1 	(obj:0)
t_p_9.17                                            1 	(obj:0)
t_p_9.18                                            1 	(obj:0)
t_p_9.19                                            1 	(obj:0)
t_p_9.20                                            1 	(obj:0)
t_p_9.21                                            1 	(obj:0)
t_p_9.24                                            1 	(obj:0)
t_p_9.25                                            1 	(obj:0)
t_p_9.26                                            1 	(obj:0)
t_p_9.27                                            1 	(obj:0)
t_p_9.28                                            1 	(obj:0)
t_p_9.29                                            1 	(obj:0)
t_p_10.0                                            1 	(obj:0)
t_p_10.2                                            1 	(obj:0)
t_p_10.4                                            1 	(obj:0)
t_p_10.5                                            1 	(obj:0)
t_p_10.6                                            1 	(obj:0)
t_p_10.7                                            1 	(obj:0)
t_p_10.9                                            1 	(obj:0)
t_p_10.11                                           1 	(obj:0)
t_p_10.14                                           1 	(obj:0)
t_p_10.15                                           1 	(obj:0)
t_p_10.18                                           1 	(obj:0)
t_p_10.19                                           1 	(obj:0)
t_p_10.22                                           1 	(obj:0)
t_p_10.23                                           1 	(obj:0)
t_p_10.24                                           1 	(obj:0)
t_p_10.25                                           1 	(obj:0)
t_p_10.26                                           1 	(obj:0)
t_p_10.27                                           1 	(obj:0)
t_p_10.28                                           1 	(obj:0)
t_p_11.12                                           1 	(obj:0)
t_p_11.13                                           1 	(obj:0)
t_p_11.14                                           1 	(obj:0)
t_p_11.16                                           1 	(obj:0)
t_p_11.17                                           1 	(obj:0)
t_p_11.18                                           1 	(obj:0)
t_p_11.19                                           1 	(obj:0)
t_p_11.21                                           1 	(obj:0)
t_p_11.24                                           1 	(obj:0)
t_p_11.25                                           1 	(obj:0)
t_p_11.26                                           1 	(obj:0)
t_p_11.27                                           1 	(obj:0)
t_p_11.28                                           1 	(obj:0)
t_p_11.29                                           1 	(obj:0)
t_p_12.0                                            1 	(obj:0)
t_p_12.2                                            1 	(obj:0)
t_p_12.5                                            1 	(obj:0)
t_p_12.11                                           1 	(obj:0)
t_p_12.15                                           1 	(obj:0)
t_p_12.16                                           1 	(obj:0)
t_p_12.21                                           1 	(obj:0)
t_p_12.24                                           1 	(obj:0)
t_p_12.25                                           1 	(obj:0)
t_p_12.26                                           1 	(obj:0)
t_p_12.27                                           1 	(obj:0)
t_p_12.28                                           1 	(obj:0)
t_p_12.29                                           1 	(obj:0)
t_p_13.2                                            1 	(obj:0)
t_p_13.5                                            1 	(obj:0)
t_p_13.9                                            1 	(obj:0)
t_p_13.11                                           1 	(obj:0)
t_p_13.12                                           1 	(obj:0)
t_p_13.14                                           1 	(obj:0)
t_p_13.15                                           1 	(obj:0)
t_p_13.17                                           1 	(obj:0)
t_p_13.18                                           1 	(obj:0)
t_p_13.22                                           1 	(obj:0)
t_p_13.24                                           1 	(obj:0)
t_p_13.26                                           1 	(obj:0)
t_p_13.28                                           1 	(obj:0)
t_p_14.5                                            1 	(obj:0)
t_p_14.11                                           1 	(obj:0)
t_p_14.12                                           1 	(obj:0)
t_p_14.15                                           1 	(obj:0)
t_p_14.16                                           1 	(obj:0)
t_p_14.17                                           1 	(obj:0)
t_p_14.18                                           1 	(obj:0)
t_p_14.20                                           1 	(obj:0)
t_p_14.21                                           1 	(obj:0)
t_p_14.24                                           1 	(obj:0)
t_p_14.25                                           1 	(obj:0)
t_p_14.26                                           1 	(obj:0)
t_p_14.27                                           1 	(obj:0)
t_p_14.28                                           1 	(obj:0)
t_p_14.29                                           1 	(obj:0)
t_p_15.16                                           1 	(obj:0)
t_p_15.17                                           1 	(obj:0)
t_p_15.18                                           1 	(obj:0)
t_p_15.19                                           1 	(obj:0)
t_p_15.20                                           1 	(obj:0)
t_p_15.21                                           1 	(obj:0)
t_p_15.23                                           1 	(obj:0)
t_p_15.24                                           1 	(obj:0)
t_p_15.25                                           1 	(obj:0)
t_p_15.26                                           1 	(obj:0)
t_p_15.27                                           1 	(obj:0)
t_p_15.28                                           1 	(obj:0)
t_p_15.29                                           1 	(obj:0)
t_p_16.2                                            1 	(obj:0)
t_p_16.5                                            1 	(obj:0)
t_p_16.9                                            1 	(obj:0)
t_p_16.11                                           1 	(obj:0)
t_p_16.12                                           1 	(obj:0)
t_p_16.14                                           1 	(obj:0)
t_p_16.15                                           1 	(obj:0)
t_p_16.22                                           1 	(obj:0)
t_p_16.23                                           1 	(obj:0)
t_p_16.24                                           1 	(obj:0)
t_p_16.25                                           1 	(obj:0)
t_p_16.26                                           1 	(obj:0)
t_p_16.27                                           1 	(obj:0)
t_p_16.28                                           1 	(obj:0)
t_p_16.29                                           1 	(obj:0)
t_p_17.0                                            1 	(obj:0)
t_p_17.2                                            1 	(obj:0)
t_p_17.4                                            1 	(obj:0)
t_p_17.5                                            1 	(obj:0)
t_p_17.6                                            1 	(obj:0)
t_p_17.8                                            1 	(obj:0)
t_p_17.9                                            1 	(obj:0)
t_p_17.11                                           1 	(obj:0)
t_p_17.12                                           1 	(obj:0)
t_p_17.13                                           1 	(obj:0)
t_p_17.14                                           1 	(obj:0)
t_p_17.15                                           1 	(obj:0)
t_p_17.16                                           1 	(obj:0)
t_p_17.18                                           1 	(obj:0)
t_p_17.23                                           1 	(obj:0)
t_p_17.24                                           1 	(obj:0)
t_p_17.26                                           1 	(obj:0)
t_p_17.27                                           1 	(obj:0)
t_p_17.28                                           1 	(obj:0)
t_p_18.0                                            1 	(obj:0)
t_p_18.2                                            1 	(obj:0)
t_p_18.4                                            1 	(obj:0)
t_p_18.5                                            1 	(obj:0)
t_p_18.6                                            1 	(obj:0)
t_p_18.7                                            1 	(obj:0)
t_p_18.8                                            1 	(obj:0)
t_p_18.9                                            1 	(obj:0)
t_p_18.10                                           1 	(obj:0)
t_p_18.11                                           1 	(obj:0)
t_p_18.12                                           1 	(obj:0)
t_p_18.13                                           1 	(obj:0)
t_p_18.14                                           1 	(obj:0)
t_p_18.15                                           1 	(obj:0)
t_p_18.16                                           1 	(obj:0)
t_p_18.17                                           1 	(obj:0)
t_p_18.24                                           1 	(obj:0)
t_p_18.27                                           1 	(obj:0)
t_p_18.28                                           1 	(obj:0)
t_p_18.29                                           1 	(obj:0)
t_p_19.0                                            1 	(obj:0)
t_p_19.1                                            1 	(obj:0)
t_p_19.2                                            1 	(obj:0)
t_p_19.3                                            1 	(obj:0)
t_p_19.4                                            1 	(obj:0)
t_p_19.5                                            1 	(obj:0)
t_p_19.6                                            1 	(obj:0)
t_p_19.7                                            1 	(obj:0)
t_p_19.8                                            1 	(obj:0)
t_p_19.9                                            1 	(obj:0)
t_p_19.10                                           1 	(obj:0)
t_p_19.11                                           1 	(obj:0)
t_p_19.12                                           1 	(obj:0)
t_p_19.13                                           1 	(obj:0)
t_p_19.14                                           1 	(obj:0)
t_p_19.15                                           1 	(obj:0)
t_p_19.16                                           1 	(obj:0)
t_p_19.17                                           1 	(obj:0)
t_p_19.18                                           1 	(obj:0)
t_p_19.20                                           1 	(obj:0)
t_p_19.21                                           1 	(obj:0)
t_p_19.22                                           1 	(obj:0)
t_p_20.0                                            1 	(obj:0)
t_p_20.2                                            1 	(obj:0)
t_p_20.5                                            1 	(obj:0)
t_p_20.6                                            1 	(obj:0)
t_p_20.8                                            1 	(obj:0)
t_p_20.9                                            1 	(obj:0)
t_p_20.11                                           1 	(obj:0)
t_p_20.12                                           1 	(obj:0)
t_p_20.13                                           1 	(obj:0)
t_p_20.14                                           1 	(obj:0)
t_p_20.15                                           1 	(obj:0)
t_p_20.16                                           1 	(obj:0)
t_p_20.21                                           1 	(obj:0)
t_p_20.24                                           1 	(obj:0)
t_p_20.26                                           1 	(obj:0)
t_p_20.27                                           1 	(obj:0)
t_p_21.0                                            1 	(obj:0)
t_p_21.2                                            1 	(obj:0)
t_p_21.5                                            1 	(obj:0)
t_p_21.6                                            1 	(obj:0)
t_p_21.8                                            1 	(obj:0)
t_p_21.9                                            1 	(obj:0)
t_p_21.11                                           1 	(obj:0)
t_p_21.12                                           1 	(obj:0)
t_p_21.13                                           1 	(obj:0)
t_p_21.14                                           1 	(obj:0)
t_p_21.15                                           1 	(obj:0)
t_p_21.16                                           1 	(obj:0)
t_p_21.23                                           1 	(obj:0)
t_p_21.24                                           1 	(obj:0)
t_p_22.0                                            1 	(obj:0)
t_p_22.2                                            1 	(obj:0)
t_p_22.4                                            1 	(obj:0)
t_p_22.5                                            1 	(obj:0)
t_p_22.7                                            1 	(obj:0)
t_p_22.9                                            1 	(obj:0)
t_p_22.11                                           1 	(obj:0)
t_p_22.12                                           1 	(obj:0)
t_p_22.14                                           1 	(obj:0)
t_p_22.15                                           1 	(obj:0)
t_p_22.17                                           1 	(obj:0)
t_p_22.18                                           1 	(obj:0)
t_p_22.20                                           1 	(obj:0)
t_p_22.21                                           1 	(obj:0)
t_p_22.24                                           1 	(obj:0)
t_p_22.25                                           1 	(obj:0)
t_p_22.27                                           1 	(obj:0)
t_p_22.29                                           1 	(obj:0)
t_p_23.0                                            1 	(obj:0)
t_p_23.2                                            1 	(obj:0)
t_p_23.4                                            1 	(obj:0)
t_p_23.5                                            1 	(obj:0)
t_p_23.9                                            1 	(obj:0)
t_p_23.11                                           1 	(obj:0)
t_p_23.12                                           1 	(obj:0)
t_p_23.13                                           1 	(obj:0)
t_p_23.14                                           1 	(obj:0)
t_p_23.15                                           1 	(obj:0)
t_p_23.20                                           1 	(obj:0)
t_p_23.24                                           1 	(obj:0)
t_p_23.25                                           1 	(obj:0)
t_p_23.28                                           1 	(obj:0)
t_p_24.0                                            1 	(obj:0)
t_p_24.5                                            1 	(obj:0)
t_p_24.6                                            1 	(obj:0)
t_p_24.8                                            1 	(obj:0)
t_p_24.9                                            1 	(obj:0)
t_p_24.10                                           1 	(obj:0)
t_p_24.11                                           1 	(obj:0)
t_p_24.12                                           1 	(obj:0)
t_p_24.13                                           1 	(obj:0)
t_p_24.14                                           1 	(obj:0)
t_p_24.15                                           1 	(obj:0)
t_p_24.16                                           1 	(obj:0)
t_p_24.17                                           1 	(obj:0)
t_p_24.18                                           1 	(obj:0)
t_p_24.20                                           1 	(obj:0)
t_p_24.21                                           1 	(obj:0)
t_p_24.22                                           1 	(obj:0)
t_p_24.23                                           1 	(obj:0)
t_p_24.28                                           1 	(obj:0)
t_p_24.29                                           1 	(obj:0)
t_p_25.5                                            1 	(obj:0)
t_p_25.9                                            1 	(obj:0)
t_p_25.10                                           1 	(obj:0)
t_p_25.11                                           1 	(obj:0)
t_p_25.12                                           1 	(obj:0)
t_p_25.14                                           1 	(obj:0)
t_p_25.15                                           1 	(obj:0)
t_p_25.16                                           1 	(obj:0)
t_p_25.22                                           1 	(obj:0)
t_p_25.23                                           1 	(obj:0)
t_p_25.27                                           1 	(obj:0)
t_p_25.29                                           1 	(obj:0)
t_p_26.5                                            1 	(obj:0)
t_p_26.6                                            1 	(obj:0)
t_p_26.8                                            1 	(obj:0)
t_p_26.9                                            1 	(obj:0)
t_p_26.10                                           1 	(obj:0)
t_p_26.11                                           1 	(obj:0)
t_p_26.12                                           1 	(obj:0)
t_p_26.13                                           1 	(obj:0)
t_p_26.14                                           1 	(obj:0)
t_p_26.15                                           1 	(obj:0)
t_p_26.16                                           1 	(obj:0)
t_p_26.17                                           1 	(obj:0)
t_p_26.20                                           1 	(obj:0)
t_p_26.25                                           1 	(obj:0)
t_p_26.28                                           1 	(obj:0)
t_p_26.29                                           1 	(obj:0)
t_p_27.5                                            1 	(obj:0)
t_p_27.9                                            1 	(obj:0)
t_p_27.10                                           1 	(obj:0)
t_p_27.11                                           1 	(obj:0)
t_p_27.12                                           1 	(obj:0)
t_p_27.14                                           1 	(obj:0)
t_p_27.15                                           1 	(obj:0)
t_p_27.16                                           1 	(obj:0)
t_p_27.17                                           1 	(obj:0)
t_p_27.18                                           1 	(obj:0)
t_p_27.20                                           1 	(obj:0)
t_p_27.22                                           1 	(obj:0)
t_p_27.25                                           1 	(obj:0)
t_p_27.29                                           1 	(obj:0)
t_p_28.5                                            1 	(obj:0)
t_p_28.6                                            1 	(obj:0)
t_p_28.8                                            1 	(obj:0)
t_p_28.9                                            1 	(obj:0)
t_p_28.10                                           1 	(obj:0)
t_p_28.11                                           1 	(obj:0)
t_p_28.12                                           1 	(obj:0)
t_p_28.13                                           1 	(obj:0)
t_p_28.14                                           1 	(obj:0)
t_p_28.15                                           1 	(obj:0)
t_p_28.16                                           1 	(obj:0)
t_p_28.17                                           1 	(obj:0)
t_p_28.18                                           1 	(obj:0)
t_p_28.23                                           1 	(obj:0)
t_p_28.25                                           1 	(obj:0)
t_p_28.27                                           1 	(obj:0)
t_p_28.29                                           1 	(obj:0)
t_p_29.0                                            1 	(obj:0)
t_p_29.5                                            1 	(obj:0)
t_p_29.9                                            1 	(obj:0)
t_p_29.11                                           1 	(obj:0)
t_p_29.12                                           1 	(obj:0)
t_p_29.14                                           1 	(obj:0)
t_p_29.15                                           1 	(obj:0)
t_p_29.22                                           1 	(obj:0)
t_z_sb1_1                                           1 	(obj:0)
t_z_sb2_2                                           1 	(obj:0)
t_z_sb3_3                                           1 	(obj:0)
t_z_sb5_5                                           1 	(obj:0)
t_z_sb6_6                                           1 	(obj:0)
t_z_sb7_7                                           1 	(obj:0)
t_z_sb15_15                                         1 	(obj:0)
t_z_sb18_18                                         1 	(obj:0)
t_z_sb20_20                                         1 	(obj:0)
t_z_sb21_21                                         1 	(obj:0)
t_z_sb22_22                                         1 	(obj:0)
t_z_sb24_24                                         1 	(obj:0)
t_z_sb25_25                                         1 	(obj:0)
t_z_sb26_26                                         1 	(obj:0)
t_z_sb27_27                                         1 	(obj:0)
t_z_sb28_28                                         1 	(obj:0)
t_z_sb29_29                                         1 	(obj:0)
t_y_sb0_0                                         539 	(obj:0)
t_y_sb1_1                                         254 	(obj:0)
t_y_sb2_2                                         588 	(obj:0)
t_y_sb3_3                                         120 	(obj:0)
t_y_sb4_4                                         497 	(obj:0)
t_y_sb5_5                                         394 	(obj:0)
t_y_sb6_6                                         257 	(obj:0)
t_y_sb7_7                                         356 	(obj:0)
t_y_sb8_8                                         138 	(obj:0)
t_y_sb9_9                                         431 	(obj:0)
t_y_sb10_10                                       321 	(obj:0)
t_y_sb11_11                                       593 	(obj:0)
t_y_sb12_12                                       381 	(obj:0)
t_y_sb13_13                                       330 	(obj:0)
t_y_sb14_14                                       410 	(obj:0)
t_y_sb15_15                                       606 	(obj:0)
t_y_sb16_16                                       202 	(obj:0)
t_y_sb17_17                                       196 	(obj:0)
t_y_sb18_18                                       154 	(obj:0)
t_y_sb20_20                                       120 	(obj:0)
t_y_sb21_21                                       254 	(obj:0)
t_y_sb22_22                                       443 	(obj:0)
t_y_sb23_23                                       367 	(obj:0)
t_y_sb25_25                                        72 	(obj:0)
t_y_sb27_27                                        35 	(obj:0)
t_y_sb28_28                                        67 	(obj:0)
t_y_sb29_29                                       336 	(obj:0)
t_H                                               645 	(obj:1)
t_x_sb0_0                                         258 	(obj:0)
t_x_sb2_2                                         160 	(obj:0)
t_x_sb4_4                                         160 	(obj:0)
t_x_sb5_5                                         608 	(obj:0)
t_x_sb6_6                                         487 	(obj:0)
t_x_sb7_7                                          81 	(obj:0)
t_x_sb8_8                                         420 	(obj:0)
t_x_sb9_9                                         328 	(obj:0)
t_x_sb10_10                                        79 	(obj:0)
t_x_sb11_11                                       416 	(obj:0)
t_x_sb12_12                                       524 	(obj:0)
t_x_sb13_13                                       416 	(obj:0)
t_x_sb14_14                                       440 	(obj:0)
t_x_sb15_15                                       533 	(obj:0)
t_x_sb16_16                                       576 	(obj:0)
t_x_sb17_17                                       168 	(obj:0)
t_x_sb18_18                                       126 	(obj:0)
t_x_sb20_20                                       282 	(obj:0)
t_x_sb21_21                                       239 	(obj:0)
t_x_sb23_23                                       232 	(obj:0)
t_x_sb24_24                                       283 	(obj:0)
t_x_sb25_25                                       610 	(obj:0)
t_x_sb26_26                                       391 	(obj:0)
t_x_sb27_27                                       583 	(obj:0)
t_x_sb28_28                                       458 	(obj:0)
t_x_sb29_29                                       565 	(obj:0)
